
Gurobi 10.0.2 (win64, .NET) logging started Sun Aug 13 19:02:44 2023

Set parameter LogFile to value "burma14_3_1001_1003_2.log"

Gurobi 10.0.2 (win64, .NET) logging started Sun Aug 13 19:05:14 2023

Set parameter LogFile to value "burma14_3_1001_1003_2.log"

Gurobi 10.0.2 (win64, .NET) logging started Sun Aug 13 19:05:44 2023

Set parameter LogFile to value "burma14_3_1001_1003_2.log"

Gurobi 10.0.2 (win64, .NET) logging started Sun Aug 13 19:34:41 2023

Set parameter LogFile to value "burma14_3_1001_1003_2.log"
